robust/generate/spp_dkp_Lefebvre_et_al_2026/src/shortest_path_10_8.kp
50
325

[2.23 1.03 1.15 1.79 1.7 4.5 1.84 3.48 3.43 1.4 1.56 1.59 0.66 4.39 4.1 2.53 1.42 4.01 3.04 1.77 2.29 2.37 4.19 2.58 3.02 0.24 1.48 0.25 0.81 4.18 4.23 3.22 3.31 2.08 4.2 1.83 3.08 2.93 2.7 1.0 3.08 3.96 3.6 1.95 4.14 3.53 3.28 0.56 4.14 1.75 1.33 2.78 2.11 1.15 3.79 0.81 1.03 2.98 2.16 0.33 0.63 0.51 2.16 2.44 4.32 2.64 2.38 4.16 4.15 1.14 3.08 4.35]

[88 86 100 35 74 76 79 36 76 78 50 1 89 14 60 36 89 79 14 15 12 19 43 11 76 47 96 10 5 15 45 28 65 86 68 10 29 83 18 6 37 82 84 95 12 68 75 16 13 69 28 55 98 52 32 36 26 50 47 21 58 37 88 20 88 88 9 35 56 36 37 85]
